4 100 1946
11 13 5 10 13 11 11 10 8 7
4 1 1 1
6 2 1 4
9
4
2
0 35.0 35.0 0.0 0.0 0 230
2 41.0 49.0 10.0 10.0 0 204 17 0 0 0 1 1 1 0 1 0 0
3 35.0 17.0 10.0 7.0 0 202 27 0 0 0 1 0 0 0 0 0 0
4 55.0 45.0 10.0 13.0 0 197 81 0 1 0 1 1 0 0 1 0 0
5 55.0 20.0 10.0 19.0 139 169 24 1 0 1 0 0 0 0 0 0 0
6 15.0 30.0 10.0 26.0 0 199 73 1 0 0 0 0 1 0 0 0 0
7 25.0 30.0 10.0 3.0 89 119 66 1 1 0 0 0 0 1 0 0 0
8 20.0 50.0 10.0 5.0 0 198 93 0 0 0 0 0 0 0 1 1 0
9 10.0 43.0 10.0 9.0 85 115 34 0 0 1 0 1 0 0 0 0 0
10 55.0 60.0 10.0 16.0 87 117 25 0 0 0 0 1 0 0 0 0 0
11 30.0 60.0 10.0 16.0 114 144 23 0 0 0 0 0 0 1 1 0 0
12 20.0 65.0 10.0 12.0 57 87 28 0 0 0 0 0 1 0 0 0 0
13 50.0 35.0 10.0 19.0 0 205 14 0 0 0 1 1 0 0 0 1 0
14 30.0 25.0 10.0 23.0 149 179 6 1 0 1 0 0 0 0 0 1 1
15 15.0 10.0 10.0 20.0 32 62 62 1 0 0 1 0 0 1 0 0 0
16 30.0 5.0 10.0 8.0 51 81 24 0 0 0 1 0 0 0 0 0 0
17 10.0 20.0 10.0 19.0 65 95 0 0 1 0 0 0 0 1 0 0 0
18 5.0 30.0 10.0 2.0 147 177 12 0 0 0 0 0 1 0 0 0 0
19 20.0 40.0 10.0 12.0 77 107 18 0 0 0 0 0 0 0 1 0 0
20 15.0 60.0 10.0 17.0 66 96 53 0 0 0 0 0 1 0 0 0 0
21 45.0 65.0 10.0 9.0 116 146 27 0 0 0 0 0 0 1 0 0 1
22 45.0 20.0 10.0 11.0 0 201 45 0 1 1 0 0 0 0 0 0 0
23 45.0 10.0 10.0 18.0 87 117 97 0 0 0 0 0 1 0 0 0 1
24 55.0 5.0 10.0 29.0 58 88 61 0 0 0 0 0 1 0 0 0 0
25 65.0 35.0 10.0 3.0 143 173 49 1 1 0 0 0 0 0 0 1 1
26 65.0 20.0 10.0 6.0 156 186 40 0 0 1 0 0 0 0 0 0 0
27 45.0 30.0 10.0 17.0 0 208 36 0 0 0 0 0 0 0 0 1 0
28 35.0 40.0 10.0 16.0 27 57 78 0 0 0 0 0 1 0 0 0 0
29 41.0 37.0 10.0 16.0 29 59 38 0 0 0 1 0 0 1 0 0 0
30 64.0 42.0 10.0 9.0 53 83 90 0 0 1 1 1 0 0 0 1 0
31 40.0 60.0 10.0 21.0 61 91 69 0 0 0 0 0 0 1 1 1 0
32 31.0 52.0 10.0 27.0 0 202 84 0 0 0 0 1 1 1 0 0 1
33 35.0 69.0 10.0 23.0 131 161 22 0 0 0 0 0 1 0 0 0 0
34 53.0 52.0 10.0 11.0 27 57 14 1 0 0 1 1 0 0 0 0 0
35 65.0 55.0 10.0 14.0 0 183 39 0 1 0 0 0 1 0 0 0 0
36 63.0 65.0 10.0 8.0 133 163 70 0 0 0 0 0 1 0 0 0 0
37 2.0 60.0 10.0 5.0 41 71 45 0 0 0 0 0 1 0 0 0 0
38 20.0 20.0 10.0 8.0 0 198 89 0 0 0 0 0 1 0 0 0 0
39 5.0 5.0 10.0 16.0 73 103 39 0 0 0 1 0 1 1 0 0 0
40 60.0 12.0 10.0 31.0 34 64 43 0 0 0 0 1 0 0 0 0 0
41 40.0 25.0 10.0 9.0 75 105 10 0 0 0 1 0 0 1 0 0 1
42 42.0 7.0 10.0 5.0 87 117 41 0 0 0 0 0 0 0 0 0 1
43 24.0 12.0 10.0 5.0 25 55 85 0 0 0 0 0 1 0 0 0 0
44 23.0 3.0 10.0 7.0 122 152 46 0 0 0 0 0 1 0 0 0 0
45 11.0 14.0 10.0 18.0 59 89 63 0 0 0 0 0 1 0 0 0 0
46 6.0 38.0 10.0 16.0 29 59 63 0 0 0 0 1 0 0 0 0 0
47 2.0 48.0 10.0 1.0 107 137 49 0 0 0 0 1 0 1 0 0 0
48 8.0 56.0 10.0 27.0 41 71 99 0 0 0 0 0 1 0 0 0 0
49 13.0 52.0 10.0 36.0 0 192 61 1 1 0 0 0 0 0 0 0 0
50 6.0 68.0 10.0 30.0 98 128 69 0 0 0 0 0 0 0 1 0 0
51 47.0 47.0 10.0 13.0 0 203 68 0 1 0 0 0 0 0 0 0 0
52 49.0 58.0 10.0 10.0 78 108 37 0 0 0 0 0 1 0 0 0 0
53 27.0 43.0 10.0 9.0 0 208 8 0 0 1 1 0 0 0 1 0 0
54 37.0 31.0 10.0 14.0 85 115 17 1 1 0 0 0 0 0 1 0 0
55 57.0 29.0 10.0 18.0 130 160 90 0 0 0 0 1 1 1 0 0 0
56 63.0 23.0 10.0 2.0 126 156 40 1 1 0 1 1 0 0 1 0 0
57 53.0 12.0 10.0 6.0 120 150 71 0 0 0 0 0 1 0 0 0 0
58 32.0 12.0 10.0 7.0 91 121 84 0 1 0 1 0 0 0 0 0 0
59 36.0 26.0 10.0 18.0 180 210 70 0 1 1 0 0 0 1 0 0 0
60 21.0 24.0 10.0 28.0 0 202 96 0 0 0 0 1 0 0 0 1 0
61 17.0 34.0 10.0 3.0 152 182 10 0 0 0 1 0 0 0 1 0 0
62 12.0 24.0 10.0 13.0 66 96 54 0 0 0 0 0 1 0 0 0 0
63 24.0 58.0 10.0 19.0 48 78 95 0 0 0 1 0 0 0 0 0 0
64 27.0 69.0 10.0 10.0 34 64 56 0 0 0 0 1 0 0 0 0 1
65 15.0 77.0 10.0 9.0 63 93 52 0 0 0 0 0 0 0 1 0 0
66 62.0 77.0 10.0 20.0 49 79 27 0 0 0 0 0 1 1 1 1 0
67 49.0 73.0 10.0 25.0 117 147 43 0 0 0 0 0 1 0 0 0 0
68 67.0 5.0 10.0 25.0 73 103 26 0 0 0 0 0 0 0 1 0 0
69 56.0 39.0 10.0 36.0 132 162 71 0 0 1 0 1 1 1 1 1 0
70 37.0 47.0 10.0 6.0 40 70 41 0 0 0 0 1 0 0 0 0 1
71 37.0 56.0 10.0 5.0 168 198 90 0 0 1 0 0 0 0 0 0 0
72 57.0 68.0 10.0 15.0 67 97 64 1 1 0 0 0 1 0 0 0 0
73 47.0 16.0 10.0 25.0 0 197 50 0 0 0 0 1 0 0 0 0 0
74 44.0 17.0 10.0 9.0 68 98 52 0 0 1 0 0 0 0 0 0 0
75 46.0 13.0 10.0 8.0 139 169 60 0 0 1 0 0 1 0 1 0 0
76 49.0 11.0 10.0 18.0 0 192 32 1 0 0 0 1 0 1 0 0 0
77 49.0 42.0 10.0 13.0 63 93 19 0 0 0 0 1 1 0 0 0 0
78 53.0 43.0 10.0 14.0 169 199 8 0 0 0 0 0 1 0 0 0 0
79 61.0 52.0 10.0 3.0 86 116 38 0 0 1 1 0 0 0 0 1 0
80 57.0 48.0 10.0 23.0 82 112 5 1 1 0 0 0 0 0 1 0 0
81 56.0 37.0 10.0 6.0 168 198 20 0 0 0 0 0 0 0 1 0 0
82 55.0 54.0 10.0 26.0 84 114 18 0 0 0 0 0 0 0 1 0 0
83 15.0 47.0 10.0 16.0 0 196 79 1 0 0 0 0 1 0 0 0 1
84 14.0 37.0 10.0 11.0 0 198 29 0 0 0 0 0 0 1 0 0 1
85 11.0 31.0 10.0 7.0 91 121 93 0 0 0 1 0 0 0 0 0 0
86 16.0 22.0 10.0 41.0 0 196 49 0 1 0 0 0 0 0 0 0 0
87 4.0 18.0 10.0 35.0 84 114 12 0 1 0 1 0 0 0 0 0 0
88 28.0 18.0 10.0 26.0 83 113 91 0 0 0 1 0 0 0 0 0 0
89 26.0 52.0 10.0 9.0 64 94 63 1 0 1 0 0 0 1 1 0 0
90 26.0 35.0 10.0 15.0 166 196 0 0 0 1 1 0 0 0 0 0 0
91 31.0 67.0 10.0 3.0 85 115 8 0 0 0 0 0 0 1 0 1 0
92 15.0 19.0 10.0 1.0 0 194 42 0 0 0 1 0 0 0 1 0 1
93 22.0 22.0 10.0 2.0 18 48 51 0 1 1 0 0 0 0 0 1 1
94 18.0 24.0 10.0 22.0 169 199 81 1 0 0 0 1 0 1 1 0 1
95 26.0 27.0 10.0 27.0 0 207 6 0 1 0 1 0 1 0 0 1 1
96 25.0 24.0 10.0 20.0 0 205 1 0 0 0 0 0 1 0 0 0 0
97 22.0 27.0 10.0 11.0 0 204 37 0 0 0 0 0 1 1 0 0 0
98 25.0 21.0 10.0 12.0 123 153 37 0 1 0 1 0 1 0 0 0 0
99 19.0 21.0 10.0 10.0 0 198 63 0 0 0 0 1 0 0 0 1 1
100 20.0 26.0 10.0 9.0 73 103 95 0 1 1 0 1 0 0 0 1 0
101 18.0 18.0 10.0 17.0 165 195 56 1 1 0 0 0 0 0 0 0 0